==> MAXTIME              = 3600
==> OUTPUTLOG            = 1
==> HEURSEARCHROOTCUTFREQ = 2
FICO Xpress v8.5.9, solve started 23:41:37, Jun 8, 2019
Maximizing MILP Seating model
Original problem has:
       230 rows          300 cols         7440 elements       300 globals
Presolved problem has:
       103 rows          204 cols         2431 elements       198 globals
LP relaxation tightened
Will try to keep branch and bound tree memory usage below 7.2GB
 *** Heuristic solution found:    22.000000      Time: 0 ***
Starting concurrent solve with dual

 Concurrent-Solve,   0s
            Dual        
    objective   dual inf
 D  102.00000   .0000000
------- optimal --------
Concurrent statistics:
      Dual: 34 simplex iterations, 0.00s
Optimal solution found
 
   Its         Obj Value      S   Ninf  Nneg   Sum Dual Inf  Time
    34        102.000000      D      0     0        .000000     0
Dual solved problem
  34 simplex iterations in 0s

Final objective                         : 1.020000000000000e+02
  Max primal violation      (abs / rel) : 1.110e-16 / 9.869e-17
  Max dual violation        (abs / rel) :       0.0 /       0.0
  Max complementarity viol. (abs / rel) :       0.0 /       0.0
All values within tolerances

Starting root cutting & heuristics
 
 Its Type    BestSoln    BestBound   Sols    Add    Del     Gap     GInf   Time
   1  K     22.000000   102.000000      1     99      0   78.43%      29      0
R           28.000000   102.000000      2                 72.55%       0      0
M           34.000000   102.000000      3                 66.67%       0      0
M           39.000000   102.000000      4                 61.76%       0      0
M           46.000000   102.000000      5                 54.90%       0      0
M           51.000000   102.000000      6                 50.00%       0      0
   2  K     51.000000   102.000000      6    111     81   50.00%      43      0
   3  K     51.000000   102.000000      6     92    101   50.00%      48      0
   4  K     51.000000   102.000000      6     87     90   50.00%      35      0
   5  K     51.000000   102.000000      6     98     87   50.00%      54      0
   6  K     51.000000   102.000000      6     94     80   50.00%      71      0
   7  K     51.000000   102.000000      6     86     89   50.00%      72      0
   8  K     51.000000   102.000000      6     77     82   50.00%      67      0
   9  K     51.000000   102.000000      6     83     74   50.00%      84      0
  10  K     51.000000   102.000000      6     82     74   50.00%      91      1
  11  K     51.000000   102.000000      6     77     81   50.00%      82      1
  12  K     51.000000   102.000000      6     83     83   50.00%      75      1
  13  K     51.000000   102.000000      6     76     80   50.00%      80      1
  14  K     51.000000   102.000000      6     85     78   50.00%      88      1
  15  K     51.000000   102.000000      6     74     77   50.00%      93      1
  16  K     51.000000   102.000000      6     98     73   50.00%      95      1
  17  K     51.000000   102.000000      6     79     94   50.00%      94      1
  18  K     51.000000   102.000000      6     79     79   50.00%      81      1
  19  K     51.000000   102.000000      6     82     80   50.00%      89      1
  20  K     51.000000   102.000000      6     79    160   50.00%      70      1
  21  G     51.000000   102.000000      6     32      2   50.00%      97      1
  22  G     51.000000   102.000000      6     54    103   50.00%      63      1
Heuristic search started
Heuristic search stopped
 
Cuts in the matrix         : 59
Cut elements in the matrix : 1414
 
Starting tree search.
Deterministic mode with up to 4 running threads and up to 8 tasks.
 
    Node     BestSoln    BestBound   Sols Active  Depth     Gap     GInf   Time
       1    51.000000   102.000000      6      2      1   50.00%      33      1
       2    51.000000   102.000000      6      2      2   50.00%      65      1
       3    51.000000   102.000000      6      2      2   50.00%      31      1
       4    51.000000   102.000000      6      2      3   50.00%      48      1
       5    51.000000   102.000000      6      2      3   50.00%      33      1
       6    51.000000   102.000000      6      2      4   50.00%      53      1
       7    51.000000   102.000000      6      5      4   50.00%      37      1
       8    51.000000   102.000000      6      8      3   50.00%      53      1
       9    51.000000   102.000000      6      8      4   50.00%      48      1
      10    51.000000   102.000000      6      8      5   50.00%      33      1
      20    51.000000   102.000000      6     14      7   50.00%      60      2
      30    51.000000   102.000000      6     14     14   50.00%      43      2
      42    51.000000   102.000000      6     14     16   50.00%      55      2
      57    51.000000   102.000000      6     14     31   50.00%      43      2
      70    51.000000   102.000000      6     14     38   50.00%      43      2
      85    51.000000   102.000000      6     14     47   50.00%      21      2
     101    51.000000   102.000000      6     14     56   50.00%      31      2
     201    51.000000   102.000000      6    104     14   50.00%      38      2
     304    51.000000   102.000000      6    104     16   50.00%       6      2
B&B tree size: 1.4MB total
 
    Node     BestSoln    BestBound   Sols Active  Depth     Gap     GInf   Time
a    324    52.000000   102.000000      7    104     16   49.02%       0      2
a    328    57.000000   102.000000      8    104     19   44.12%       0      2
     415    57.000000   102.000000      8    104     20   44.12%      24      2
     521    57.000000   102.000000      8    104     32   44.12%      26      2
     624    57.000000   102.000000      8    168      1   44.12%       1      2
     726    57.000000   102.000000      8    168     16   44.12%      24      3
     841    57.000000   102.000000      8    168     39   44.12%      22      3
     944    57.000000   102.000000      8    168     40   44.12%      46      3
    1048    57.000000   102.000000      8    168     43   44.12%      40      3
    1155    57.000000   102.000000      8    168     52   44.12%      35      3
    1258    57.000000   102.000000      8    168     58   44.12%      37      3
    1359    57.000000   102.000000      8    168     40   44.12%       5      3
    1469    57.000000   102.000000      8    168     48   44.12%      28      3
    1575    57.000000   102.000000      8    168     35   44.12%      33      3
    1688    57.000000   102.000000      8    338     45   44.12%      13      3
    1791    57.000000   102.000000      8    338     50   44.12%      19      3
    1891    57.000000   102.000000      8    338     33   44.12%      25      3
    2000    57.000000   102.000000      8    338     63   44.12%      24      4
    2111    57.000000   102.000000      8    338     55   44.12%      22      4
    2223    57.000000   102.000000      8    338     29   44.12%      44      4
B&B tree size: 7.4MB total
 
    Node     BestSoln    BestBound   Sols Active  Depth     Gap     GInf   Time
    2339    57.000000   102.000000      8    338     48   44.12%      23      4
    2447    57.000000   102.000000      8    338     37   44.12%      21      4
    2556    57.000000   102.000000      8    455     47   44.12%      49      4
    2671    57.000000   102.000000      8    585     16   44.12%      21      4
    2785    57.000000   102.000000      8    708      1   44.12%       1      4
    2896    57.000000   102.000000      8    922     49   44.12%      31      4
    3009    57.000000   102.000000      8    922     39   44.12%      24      4
    3109    57.000000   102.000000      8   1151     52   44.12%      39      4
    3224    57.000000   102.000000      8   1356      1   44.12%       1      4
    3324    57.000000   102.000000      8   1356     64   44.12%      20      4
    3425    57.000000   102.000000      8   1356     39   44.12%      51      4
    3536    57.000000   102.000000      8   1356     50   44.12%      37      5
    3642    57.000000   102.000000      8   1356     53   44.12%      19      5
    3751    57.000000   102.000000      8   1356     42   44.12%      20      5
    3870    57.000000   102.000000      8   1470      1   44.12%       1      5
    3978    57.000000   101.708043      8   1731     64   43.96%      27      5
    4086    57.000000   101.708043      8   1731     70   43.96%      35      5
    4192    57.000000   101.708043      8   1731     71   43.96%      34      5
    4306    57.000000   101.708043      8   1731     46   43.96%      19      5
    4411    57.000000   101.708043      8   1731     77   43.96%      37      5
B&B tree size: 11MB total
 
    Node     BestSoln    BestBound   Sols Active  Depth     Gap     GInf   Time
    4511    57.000000   101.708043      8   1731     45   43.96%      42      5
    4633    57.000000   101.708043      8   1731     53   43.96%      27      5
    4734    57.000000   101.708043      8   1731     63   43.96%      28      5
    4844    57.000000   101.708043      8   1731     55   43.96%      11      5
    4951    57.000000   101.708043      8   1731     74   43.96%      20      6
    5056    57.000000   101.708043      8   1792     32   43.96%      37      6
    5158    57.000000   101.708043      8   1792     50   43.96%      23      6
    5264    57.000000   101.708043      8   1792     42   43.96%      40      6
    5367    57.000000   101.708043      8   1792     23   43.96%      23      6
    5470    57.000000   101.708043      8   1792     57   43.96%      34      6
    5580    57.000000   101.708043      8   1792     27   43.96%      30      6
    5688    57.000000   101.708043      8   1792     35   43.96%      19      6
    5793    57.000000   101.708043      8   1792     35   43.96%      33      6
    5910    57.000000   101.708043      8   1974     25   43.96%      14      6
    6014    57.000000   101.708043      8   1974     90   43.96%      36      6
    6128    57.000000   101.708043      8   1974     53   43.96%      46      6
    6236    57.000000   101.708043      8   1974     42   43.96%      19      7
    6346    57.000000   101.708043      8   1974     56   43.96%      49      7
    6460    57.000000   101.708043      8   1974     51   43.96%      39      7
    6574    57.000000   101.708043      8   1974     44   43.96%      34      7
B&B tree size: 16MB total
 
    Node     BestSoln    BestBound   Sols Active  Depth     Gap     GInf   Time
    6681    57.000000   101.708043      8   1974     56   43.96%      44      7
    6788    57.000000   101.708043      8   1974     56   43.96%      41      7
    6905    57.000000   101.708043      8   2197      1   43.96%       1      7
    7012    57.000000   101.708043      8   2197     29   43.96%      35      7
    7112    57.000000   101.708043      8   2197     78   43.96%      32      7
    7221    57.000000   101.708043      8   2197     29   43.96%      26      7
    7352    57.000000   101.708043      8   2575      1   43.96%       1      7
    7455    57.000000   101.708043      8   2575     45   43.96%      19      8
    7555    57.000000   101.708043      8   2575     50   43.96%      21      8
    7674    57.000000   101.708043      8   2753     64   43.96%      36      8
    7776    57.000000   101.708043      8   2753     64   43.96%      27      8
    7878    57.000000   101.708043      8   2753     70   43.96%      34      8
    7993    57.000000   101.115780      8   3069     66   43.63%      48      8
a   8050    59.000000   101.115780      9   3069     83   41.65%       0      8
    8103    59.000000   101.115780      9   3069     73   41.65%      24      8
    8210    59.000000   101.115780      9   3069     53   41.65%      46      8
    8318    59.000000   101.115780      9   3069     62   41.65%      36      8
a   8436    60.000000   101.115780     10   3069     40   40.66%       0      8
    8439    60.000000   101.115780     10   3069     40   40.66%       2      8
    8617    60.000000   101.115780     10   3213      1   40.66%       1      8
B&B tree size: 19MB total
 
    Node     BestSoln    BestBound   Sols Active  Depth     Gap     GInf   Time
    8721    60.000000   101.115780     10   3213     54   40.66%       9      8
    8857    60.000000   100.000000     10   3512      1   40.00%       1      8
    8962    60.000000   100.000000     10   3512     32   40.00%      23      9
    9063    60.000000   100.000000     10   3512     42   40.00%      23      9
    9180    60.000000   100.000000     10   3512     45   40.00%      27      9
    9282    60.000000   100.000000     10   3512     60   40.00%      43      9
    9385    60.000000   100.000000     10   3512     26   40.00%      39      9
    9495    60.000000   100.000000     10   3512     63   40.00%      40      9
    9595    60.000000   100.000000     10   3512     29   40.00%      16      9
    9701    60.000000   100.000000     10   3591      1   40.00%       1      9
    9811    60.000000   100.000000     10   3695     49   40.00%      29      9
    9911    60.000000   100.000000     10   3695     11   40.00%      38      9
   10012    60.000000   100.000000     10   3695     56   40.00%      20     10
   11016    60.000000    95.873843     10   3972     60   37.42%      40     10
   12028    60.000000    93.667373     10   4765     62   35.94%      34     11
   13033    60.000000    93.667373     10   5029     48   35.94%      43     12
   14039    60.000000    91.604714     10   5310      1   34.50%       1     12
   15054    60.000000    91.000000     10   5507     67   34.07%      20     13
   16059    60.000000    90.010965     10   5919     41   33.34%      36     14
   17061    60.000000    90.010965     10   6191     40   33.34%      34     14
B&B tree size: 33MB total
 
    Node     BestSoln    BestBound   Sols Active  Depth     Gap     GInf   Time
   18065    60.000000    89.000000     10   6488     42   32.58%      41     15
   19068    60.000000    89.000000     10   6912     40   32.58%      22     16
   20071    60.000000    89.000000     10   7317     35   32.58%      39     17
   21072    60.000000    88.000000     10   7636     53   31.82%      28     17
   22086    60.000000    88.000000     10   7849     50   31.82%      14     18
   23098    60.000000    88.000000     10   8085     39   31.82%      25     18
   24108    60.000000    88.000000     10   8288     50   31.82%      14     19
   25125    60.000000    87.000000     10   8740     66   31.03%      19     20
   26143    60.000000    86.708333     10   8974     62   30.80%      16     21
   27145    60.000000    86.465966     10   9250     63   30.61%      23     21
   28152    60.000000    85.728911     10   9556     64   30.01%      31     22
   29154    60.000000    85.728911     10   9640     50   30.01%      31     23
   30166    60.000000    85.648527     10   9899     37   29.95%      17     23
   31171    60.000000    85.000000     10  10215     45   29.41%      65     24
   32175    60.000000    85.000000     10  10433     30   29.41%      15     25
   33181    60.000000    85.000000     10  10596     46   29.41%      41     26
   34187    60.000000    85.000000     10  10776     32   29.41%      26     26
   35202    60.000000    84.992024     10  10972     70   29.41%      21     27
   36205    60.000000    84.992024     10  11110     77   29.41%      18     28
   37213    60.000000    84.652448     10  11471     27   29.12%      20     28
B&B tree size: 59MB total
 
    Node     BestSoln    BestBound   Sols Active  Depth     Gap     GInf   Time
   38215    60.000000    84.560896     10  11626     45   29.05%      16     29
   39225    60.000000    84.100119     10  11823     67   28.66%      21     29
   40226    60.000000    84.000000     10  12079     40   28.57%      36     30
   41229    60.000000    84.000000     10  12281     66   28.57%      34     31
   42242    60.000000    83.629837     10  12523     15   28.26%      36     31
   43242    60.000000    83.522669     10  12621     19   28.16%      43     32
   44253    60.000000    83.192416     10  12860     39   27.88%      25     32
   45254    60.000000    83.025635     10  13061     51   27.73%      27     33
   46260    60.000000    83.000000     10  13442     41   27.71%      27     34
   47266    60.000000    83.000000     10  13509     30   27.71%      23     35
   48277    60.000000    83.000000     10  13880     42   27.71%      41     35
   49304    60.000000    83.000000     10  13998     59   27.71%      14     36
   50314    60.000000    83.000000     10  14119     28   27.71%      28     36
   51315    60.000000    83.000000     10  14328     40   27.71%       6     37
   52316    60.000000    83.000000     10  14506      1   27.71%       1     38
   53316    60.000000    82.578458     10  14668     50   27.34%      31     38
   54317    60.000000    82.500000     10  14812     62   27.27%      18     39
   55332    60.000000    82.500000     10  15008     46   27.27%      19     39
   56333    60.000000    82.005848     10  15079     49   26.83%      29     40
   57343    60.000000    82.000000     10  15453     56   26.83%      21     41
B&B tree size: 79MB total
 
    Node     BestSoln    BestBound   Sols Active  Depth     Gap     GInf   Time
   58354    60.000000    82.000000     10  15645     27   26.83%      28     42
   59354    60.000000    82.000000     10  15870     72   26.83%      27     42
   60367    60.000000    82.000000     10  16019     53   26.83%      17     43
   61368    60.000000    81.988708     10  16100     64   26.82%      20     44
   62374    60.000000    81.779443     10  16295     53   26.63%      33     44
   63382    60.000000    81.586410     10  16483     75   26.46%      30     45
   64385    60.000000    81.444444     10  16660     22   26.33%      41     45
   65397    60.000000    81.421296     10  16859     42   26.31%      22     46
   66407    60.000000    81.421296     10  17035     44   26.31%      14     47
   67416    60.000000    81.000000     10  17265     60   25.93%      30     48
   68416    60.000000    81.000000     10  17329     62   25.93%      40     48
   69422    60.000000    81.000000     10  17484     26   25.93%      37     49
   70438    60.000000    81.000000     10  17608     55   25.93%      29     49
   71444    60.000000    80.845083     10  17720     78   25.78%      30     50
   72447    60.000000    80.722792     10  17920     60   25.67%      19     51
   73450    60.000000    80.662301     10  18049     58   25.62%      25     51
User interrupt (9) triggered.
 *** Search unfinished ***    Time:    52 Nodes:      73998
Number of integer feasible solutions found is 10
Best integer solution found is    60.000000
Best bound is    80.545427
